# LAMMPS Input Script

read_restart sim1.restart

# Set force to zero on all atoms
velocity all set 0.0 0.0 0.0

# Integrator Settings
compute			perAtomPE all pe/atom
timestep        0.01
thermo          1000
thermo_style    custom step temp pe ke etotal

# Dump command to output atom positions to a file
dump myDump all custom 10000 output_fix2.lammpstrj id type x y z fx fy fz c_perAtomPE

# Run NVE
fix freezef frame setforce NULL NULL 0.0
fix dragU non_frame viscous 0.1
fix nve_all non_frame nve

variable r0 equal 0.5
variable dr0 equal 0.005  # Change per step to go from 1.0 to 0.8

label loop

variable i loop 50

    # Update r0
    variable r0 equal ${r0}-${dr0}
    bond_coeff 1 30.0 ${r0}
    
    # Run for 10000 timesteps
    run 10000

next i
jump in_fix.lmp loop
